(set-info :smt-lib-version 2.6)
(set-logic QF_UFLRA)
(set-info :source |
MathSat group

|)
(set-info :category "random")
(set-info :status sat)
(declare-fun x0 () Real)
(declare-fun x1 () Real)
(declare-fun x2 () Real)
(declare-fun x3 () Real)
(declare-fun x4 () Real)
(declare-fun x5 () Real)
(declare-fun x6 () Real)
(declare-fun x7 () Real)
(declare-fun x8 () Real)
(declare-fun x9 () Real)
(declare-fun x10 () Real)
(declare-fun x11 () Real)
(declare-fun x12 () Real)
(declare-fun x13 () Real)
(declare-fun x14 () Real)
(declare-fun x15 () Real)
(declare-fun x16 () Real)
(declare-fun x17 () Real)
(declare-fun x18 () Real)
(declare-fun x19 () Real)
(declare-fun x20 () Real)
(declare-fun x21 () Real)
(declare-fun x22 () Real)
(declare-fun x23 () Real)
(declare-fun x24 () Real)
(declare-fun x25 () Real)
(declare-fun x26 () Real)
(declare-fun x27 () Real)
(declare-fun x28 () Real)
(declare-fun x29 () Real)
(declare-fun x30 () Real)
(declare-fun x31 () Real)
(declare-fun x32 () Real)
(declare-fun x33 () Real)
(declare-fun x34 () Real)
(declare-fun x35 () Real)
(declare-fun x36 () Real)
(declare-fun x37 () Real)
(declare-fun x38 () Real)
(declare-fun x39 () Real)
(declare-fun x40 () Real)
(declare-fun x41 () Real)
(declare-fun x42 () Real)
(declare-fun x43 () Real)
(declare-fun x44 () Real)
(declare-fun x45 () Real)
(declare-fun x46 () Real)
(declare-fun x47 () Real)
(declare-fun x48 () Real)
(declare-fun x49 () Real)
(declare-fun f0_1 (Real) Real)
(declare-fun f0_2 (Real Real) Real)
(declare-fun f0_3 (Real Real Real) Real)
(declare-fun f0_4 (Real Real Real Real) Real)
(declare-fun P0 () Bool)
(declare-fun P1 () Bool)
(declare-fun P2 () Bool)
(declare-fun P3 () Bool)
(declare-fun P4 () Bool)
(declare-fun P5 () Bool)
(declare-fun P6 () Bool)
(declare-fun P7 () Bool)
(declare-fun P8 () Bool)
(declare-fun P9 () Bool)
(declare-fun P10 () Bool)
(declare-fun P11 () Bool)
(declare-fun P12 () Bool)
(declare-fun P13 () Bool)
(declare-fun P14 () Bool)
(declare-fun P15 () Bool)
(declare-fun P16 () Bool)
(declare-fun P17 () Bool)
(declare-fun P18 () Bool)
(declare-fun P19 () Bool)
(declare-fun P20 () Bool)
(declare-fun P21 () Bool)
(declare-fun P22 () Bool)
(declare-fun P23 () Bool)
(declare-fun P24 () Bool)
(declare-fun P25 () Bool)
(declare-fun P26 () Bool)
(declare-fun P27 () Bool)
(declare-fun P28 () Bool)
(declare-fun P29 () Bool)
(declare-fun P30 () Bool)
(declare-fun P31 () Bool)
(declare-fun P32 () Bool)
(declare-fun P33 () Bool)
(declare-fun P34 () Bool)
(declare-fun P35 () Bool)
(declare-fun P36 () Bool)
(declare-fun P37 () Bool)
(declare-fun P38 () Bool)
(declare-fun P39 () Bool)
(declare-fun P40 () Bool)
(declare-fun P41 () Bool)
(declare-fun P42 () Bool)
(declare-fun P43 () Bool)
(declare-fun P44 () Bool)
(declare-fun P45 () Bool)
(declare-fun P46 () Bool)
(declare-fun P47 () Bool)
(declare-fun P48 () Bool)
(declare-fun P49 () Bool)
(assert (let ((?v_32 (<= (- (- (* 27 x12) (* 10 x30)) (* 16 x19)) 5)) (?v_29 (< (- (+ (* 16 x45) (* 18 x31)) (* 13 x4)) 2)) (?v_7 (* 23 x40)) (?v_126 (* 12 x12)) (?v_78 (* 23 x38))) (let ((?v_190 (<= (- (- (* 23 x44) ?v_78) (* 10 x36)) 11)) (?v_113 (< (+ (- (* 19 x1) (* 9 x25)) (* 9 x48)) 22)) (?v_30 (< (+ (- (* 18 x19) (* 7 x19)) (* 21 x9)) 11)) (?v_36 (< (- (+ (* 11 x44) (* 4 x21)) (* 16 x2)) 18)) (?v_163 (= (+ (- (* 12 x14) (* 26 x12)) (* 26 x22)) 4)) (?v_44 (= x17 x17)) (?v_148 (distinct x5 x15)) (?v_101 (f0_1 x3))) (let ((?v_216 (distinct ?v_101 (f0_1 x24))) (?v_41 (f0_1 x44))) (let ((?v_133 (= (f0_2 x16 x47) ?v_41)) (?v_207 (= (f0_2 x4 x2) (f0_2 x21 x10))) (?v_141 (distinct (f0_2 x40 x13) (f0_1 x25))) (?v_35 (distinct (f0_1 x0) x8)) (?v_179 (distinct x8 (f0_1 x4))) (?v_220 (= (f0_2 x27 x37) x6)) (?v_67 (f0_1 x16))) (let ((?v_108 (distinct ?v_67 x4)) (?v_26 (distinct x37 x28)) (?v_154 (= (f0_2 x18 x40) (f0_1 x30))) (?v_84 (f0_1 x32))) (let ((?v_120 (distinct x2 ?v_84)) (?v_25 (= (f0_1 x33) x15)) (?v_28 (= (f0_2 x26 x36) (f0_1 x49))) (?v_138 (= x29 (f0_2 x44 x17))) (?v_127 (distinct (f0_2 x32 x10) (f0_1 x45))) (?v_171 (= (f0_2 x9 x18) (f0_1 x42))) (?v_104 (= (f0_2 x24 x21) ?v_41)) (?v_164 (= x27 (f0_1 x13))) (?v_111 (distinct ?v_84 (f0_2 x10 x30))) (?v_57 (= x30 (f0_2 x37 x42))) (?v_43 (= (f0_2 x35 x13) (f0_1 x35))) (?v_6 (= (f0_2 x10 x2) (f0_2 x18 x9))) (?v_39 (= (f0_1 x39) (f0_2 x29 x24))) (?v_128 (distinct x12 (f0_2 x34 x4))) (?v_3 (distinct (f0_2 x29 x47) (f0_1 x21))) (?v_116 (= (f0_1 x10) x38)) (?v_74 (distinct x15 x44)) (?v_47 (distinct x47 x15)) (?v_13 (f0_1 x26))) (let ((?v_1 (= ?v_13 (f0_2 x10 x36))) (?v_20 (distinct ?v_101 ?v_13)) (?v_31 (distinct (f0_2 x26 x2) x7)) (?v_237 (distinct x32 (f0_2 x15 x13))) (?v_234 (distinct (f0_1 x8) (f0_2 x30 x16))) (?v_69 (= x12 x35)) (?v_93 (= (f0_2 x29 x17) x15)) (?v_14 (= (f0_1 x27) (f0_2 x9 x10))) (?v_161 (distinct (f0_2 x17 x43) (f0_2 x3 x28))) (?v_131 (f0_1 x18))) (let ((?v_137 (distinct ?v_131 (f0_1 x29))) (?v_11 (distinct x23 (f0_2 x5 x15))) (?v_168 (= (f0_2 x20 x7) x40)) (?v_86 (distinct (f0_2 x19 x11) x22)) (?v_94 (distinct x4 ?v_131)) (?v_10 (distinct (f0_2 x10 x12) x28)) (?v_229 (= (f0_2 x17 x13) x26)) (?v_89 (distinct (f0_2 x0 x24) (f0_2 x43 x26))) (?v_68 (distinct ?v_67 (f0_1 x40))) (?v_157 (distinct x35 x30)) (?v_9 (= x13 (f0_1 x31))) (?v_8 (not ?v_1)) (?v_73 (not P9)) (?v_61 (not ?v_14))) (let ((?v_18 (not ?v_68)) (?v_16 (not P21)) (?v_4 (not P34)) (?v_188 (not P30)) (?v_2 (not ?v_30)) (?v_82 (not ?v_25)) (?v_115 (not P15)) (?v_72 (not ?v_32)) (?v_15 (not P10)) (?v_147 (not P22)) (?v_5 (not ?v_43)) (?v_249 (not P35)) (?v_21 (not ?v_190)) (?v_55 (not P19)) (?v_109 (not ?v_9)) (?v_54 (not ?v_220)) (?v_214 (not P27)) (?v_63 (not ?v_10)) (?v_201 (not ?v_11)) (?v_162 (not P33)) (?v_53 (not ?v_20)) (?v_241 (not ?v_116)) (?v_76 (not P11)) (?v_23 (not P24))) (let ((?v_221 (or ?v_23 P12)) (?v_134 (not ?v_35)) (?v_91 (not ?v_94)) (?v_42 (not ?v_69)) (?v_48 (not P28)) (?v_70 (not P46)) (?v_112 (not ?v_47)) (?v_195 (not P2)) (?v_139 (not P29)) (?v_205 (not ?v_154)) (?v_170 (not P16)) (?v_83 (not ?v_28)) (?v_132 (not P20)) (?v_208 (not ?v_29)) (?v_178 (not P3)) (?v_62 (not ?v_148)) (?v_136 (not P7)) (?v_238 (not ?v_31)) (?v_232 (not P47)) (?v_64 (not ?v_138)) (?v_96 (not ?v_6)) (?v_88 (not ?v_36)) (?v_71 (not ?v_39)) (?v_50 (not ?v_171)) (?v_118 (not ?v_234)) (?v_92 (not ?v_44)) (?v_226 (not P8)) (?v_65 (not P17)) (?v_85 (not P23)) (?v_114 (not ?v_120)) (?v_79 (not ?v_74)) (?v_110 (not P0)) (?v_155 (not P1)) (?v_105 (not P26)) (?v_122 (not P45)) (?v_90 (not P37)) (?v_219 (not ?v_86)) (?v_95 (not P38)) (?v_123 (not ?v_164)) (?v_187 (not P31)) (?v_189 (not P25)) (?v_107 (not P4)) (?v_199 (not P41)) (?v_209 (not ?v_93)) (?v_143 (not ?v_128)) (?v_224 (not ?v_216)) (?v_191 (not P36)) (?v_156 (not ?v_108)) (?v_252 (not P49)) (?v_158 (not ?v_229)) (?v_150 (not P48)) (?v_130 (not ?v_113)) (?v_165 (not ?v_207)) (?v_231 (not ?v_127)) (?v_167 (not P43)) (?v_174 (not ?v_3)) (?v_135 (not ?v_133)) (?v_166 (not ?v_179)) (?v_183 (not ?v_168)) (?v_172 (not P32)) (?v_160 (not ?v_237)) (?v_215 (not ?v_157)) (?v_198 (not ?v_89)) (?v_176 (not ?v_161)) (?v_202 (not ?v_111)) (?v_236 (not P18)) (?v_248 (not ?v_57)) (?v_244 (not ?v_163)) (?v_206 (not ?v_137)) (?v_212 (not P5)) (?v_228 (not P44)) (?v_254 (not P14)) (?v_222 (not P13)) (?v_253 (not ?v_26)) (?v_217 (not P6)) (?v_250 (not P42)) (?v_239 (not ?v_104)) (?v_246 (or ?v_190 P22)) (?v_255 (not P39)) (?v_256 (not P12)) (?v_100 (<= (+ (* 10 x18) (* 18 x49)) 3))) (let ((?v_24 (not ?v_100)) (?v_0 (<= (- (+ (* 7 x1) x33) (* 24 x46)) 7))) (let ((?v_223 (not ?v_0)) (?v_140 (<= (+ (- 0 (* 10 x6)) (* 23 x11)) 16)) (?v_75 (< (+ (* 19 x33) (* 2 x39) (* 4 x48)) 7)) (?v_52 (<= (+ (* 24 x24) (* 7 x45) (* 17 x3)) 29))) (let ((?v_98 (not ?v_52)) (?v_45 (<= (+ x49 (* 27 x23) (* 22 x44)) 17))) (let ((?v_245 (not ?v_45)) (?v_103 (<= (+ (* 25 x46) (* 4 x22)) 25))) (let ((?v_200 (not ?v_103)) (?v_233 (not ?v_140)) (?v_243 (not ?v_75)) (?v_34 (= (+ (* (- 2) x23) x19 (* 11 x27)) 28))) (let ((?v_51 (not ?v_34)) (?v_149 (< (+ (- (* (- 8) x1) x43) (* 27 x35)) (- 12))) (?v_46 (<= (- (+ (* (- 15) x15) (* 26 x17)) (* 16 x28)) 13)) (?v_99 (< (- (- (* (- 26) x36) (* 21 x42)) (* 12 x42)) (- 25))) (?v_144 (< (+ (* (- 7) x43) (* 20 x31) ?v_7) (- 1)))) (let ((?v_60 (not ?v_144)) (?v_27 (< (- (+ (* 27 x7) (* 2 x17)) 0) (- 14)))) (let ((?v_182 (not ?v_27)) (?v_119 (<= (+ (* (- 26) x15) (* 15 x48) (* 16 x15)) 14)) (?v_22 (<= (- (+ (* (- 15) x3) (* 23 x41)) (* 9 x3)) 14))) (let ((?v_129 (not ?v_22)) (?v_102 (< (+ (* 6 x37) (* 15 x18) (* 7 x12)) (- 28))) (?v_12 (= (- (+ (* (- 9) x42) ?v_7) (* 9 x9)) 29)) (?v_142 (< (- (+ (* (- 9) x37) (* 24 x15)) (* 16 x12)) 27))) (let ((?v_169 (not ?v_142)) (?v_211 (<= (- (+ (* 24 x44) (* 26 x32)) (* 20 x27)) (- 19))) (?v_38 (distinct (- (* (- 10) x24) (* 27 x41)) (- 6)))) (let ((?v_17 (not ?v_38)) (?v_33 (< (- (* 20 x45) (* 8 x39)) (- 5)))) (let ((?v_19 (not ?v_33)) (?v_49 (< (- (- (* (- 21) x16) (* 27 x21)) (* 25 x17)) 8)) (?v_56 (< (- (+ ?v_126 (* 14 x41)) (* 27 x31)) (- 5))) (?v_121 (= (- (+ (* (- 25) x29) (* 10 x17)) 0) 19))) (let ((?v_40 (not ?v_121)) (?v_180 (<= (- (- (* (- 17) x32) (* 19 x2)) (* 9 x34)) 28))) (let ((?v_106 (not ?v_180)) (?v_145 (<= (+ (- (* (- 10) x21) (* 2 x14)) (* 18 x40)) (- 6))) (?v_204 (< (- (+ (* (- 8) x21) (* 9 x22)) (* 21 x46)) (- 29)))) (let ((?v_80 (not ?v_204)) (?v_37 (<= (+ (* (- 11) x37) x27 (* 27 x8)) (- 17))) (?v_77 (distinct (+ (- (* 23 x27) (* 13 x28)) (* 2 x4)) (- 29))) (?v_58 (<= (- (- (* (- 23) x4) (* 18 x13)) 0) (- 6))) (?v_59 (< (+ (* (- 16) x18) (* 2 x13) (* 14 x5)) 2)) (?v_124 (< (- (- (* (- 26) x45) x3) (* 2 x32)) (- 17)))) (let ((?v_125 (not ?v_124)) (?v_87 (<= (+ (- (* (- 11) x36) (* 26 x37)) (* 10 x44)) (- 11))) (?v_146 (not ?v_46)) (?v_210 (<= (+ (* 4 x24) (* 7 x30) (* 15 x45)) (- 16)))) (let ((?v_194 (not ?v_210)) (?v_151 (not ?v_49)) (?v_152 (not ?v_56)) (?v_185 (not ?v_59)) (?v_66 (< (+ (- (* (- 6) x47) (* 19 x40)) (* 7 x47)) (- 4)))) (let ((?v_81 (not ?v_66)) (?v_97 (= (- (- (* (- 7) x34) (* 25 x23)) (* 21 x34)) (- 5)))) (let ((?v_192 (not ?v_97)) (?v_213 (< (- (- (* (- 19) x0) ?v_78) (* 4 x16)) (- 26)))) (let ((?v_177 (not ?v_213)) (?v_117 (not ?v_87)) (?v_159 (not ?v_37)) (?v_247 (not ?v_99)) (?v_153 (not ?v_119)) (?v_175 (not ?v_58)) (?v_235 (< (+ (* 25 x36) ?v_126 (* 27 x17)) (- 10))) (?v_184 (not ?v_102)) (?v_196 (< (+ (- (* 9 x16) (* 20 x25)) (* 10 x49)) (- 1))) (?v_181 (< (- (+ (* (- 17) x21) (* 25 x16)) (* 27 x4)) (- 19))) (?v_173 (<= (+ (* 16 x8) (* 14 x35) (* 18 x30)) (- 9))) (?v_203 (< (+ (* (- 10) x39) (* 6 x23)) 25))) (let ((?v_230 (not ?v_173)) (?v_186 (not ?v_77)) (?v_193 (<= (- (- (* (- 19) x45) (* 3 x41)) (* 17 x29)) (- 27)))) (let ((?v_197 (not ?v_193)) (?v_227 (not ?v_196)) (?v_242 (not ?v_12)) (?v_218 (not ?v_149)) (?v_225 (not ?v_145)) (?v_240 (not ?v_211)) (?v_251 (not ?v_203))) (and (and (and (and (and (and (and (and (and (and (and (and (and (and (and (and (and (and (and (and (and (and (and (and (and (and (and (and (and (and (and (and (and (and (and (and (and (and (and (and (and (and (and (and (and (and (and (and (and (and (and (and (and (and (and (and (and (and (and (and (and (and (and (and (and (and (and (and (and (and (and (and (and (and (and (and (and (and (and (and (and (and (and (and (and (and (and (and (and (and (and (and (and (and (and (and (and (and (and (and (and (and (and (and (and (and (and (and (and (and (and (and (and (and (and (and (and (and (and (and (and (and (and (and (and (and (and (and (and (and (and (and (and (and (and (and (and (and (and (and (and (and (and (and (and (and (and (and (and (and (and (and (and (and (and (and (and (and (and (and (and (and (and (and (and (and (and (and (and (and (and (and (and (and (and (and (and (and (and (and (and (and (and (and (and (and (and (and (and (and (and (and (and (and (and (and (and (and (and (and (and (and (and (and (and (and (and (and (and (and (and (and (and (and (and (and (and (and (and (and (and (and (and (and (and (and (and (and (and (and (and (and (and (and (and (and (and (and (and (and (and (and (and (and (and (and (and (and (and (and (and (and (and (and (and (and (and (and (and (and (and (and (and (and (and (and (and (and (and (and (and (and (and (and (and (and (and (and (and (and (and (and (and (and (and (and (and (and (and (and (and (and (and (and (and (and (and (and (and (and (and (and (and (and (and (and (and (and (and (and (and (and (and (and (and (and (and (and (and (and (and (and (and (and (and (and (and (and (and (and (and (and (and (and (and (and (and (and (and (and (and (and (and (and (and (and (and (and (and (and (and (and (and (and (and (and (and (and (and (and (and (and (and (and (and (and (and (and (and (and (and (and (and (and (and (and (and (and (and (and (and (and (and (and (and (and (and (and (and (and (and (and (and (and (and (and (and (and (and (and (and (and (and (and (and (and (and (and (and (and (and (and (and (and (and (and (and (and (and (and (and (and (and (and (and (and (and (and (and (and (and (and (and (and (and (and (and (and (and (and (and (and (and (and (and (and (and (and (and (and (and (and (and (and (and (and (and (and (and (and (and (and (and (and (and (and (and (and (and (and (and (and (and (and (and (and (and (and (and (and (and (and (and (and (and (and (and (and (and (and (and (and (and (and (and (and (and (and (and (and (and (and (and (and (and (and (and (and (and (and (and (and (and (and (and (and (and (and (and (and (and (and (and (and (and (and (and (and (and (and (and (and (and (and (and (and (and (and (and (and (and (and (and (and (and (and (and (and (and (and (and (and (and (and (and (and (and (and (and (and (and (and (and (and (and (and (and (and (and (and (and (and (and (and (and (and (and (and (and (and (and (and (and (and (and (and (and (and (and (and (and (and (and (and (and (and (and (and (and (or (or ?v_24 ?v_223) ?v_8) (or (or P11 P7) ?v_3)) (or (or ?v_73 ?v_51) ?v_61)) (or (or ?v_149 ?v_46) ?v_18)) (or (or ?v_16 ?v_0) ?v_44)) (or (or ?v_9 ?v_4) ?v_1)) (or (or ?v_99 ?v_188) ?v_140)) (or (or ?v_2 ?v_2) ?v_60)) (or (or ?v_82 ?v_182) ?v_3)) (or (or ?v_11 ?v_4) ?v_115)) (or (or ?v_72 ?v_36) ?v_15)) (or (or ?v_147 ?v_5) P0)) (or (or ?v_249 ?v_104) ?v_119)) (or (or ?v_21 P41) ?v_129)) (or (or ?v_127 ?v_31) ?v_5)) (or (or P48 ?v_6) ?v_102)) (or (or P42 ?v_26) ?v_6)) (or (or ?v_55 ?v_12) ?v_8)) (or (or ?v_109 ?v_54) ?v_169)) (or (or ?v_211 ?v_10) ?v_214)) (or (or P14 ?v_63) ?v_201)) (or (or ?v_12 ?v_162) ?v_53)) (or (or P34 ?v_17) ?v_14)) (or (or ?v_241 ?v_75) ?v_76)) (or ?v_221 ?v_5)) (or (or ?v_15 ?v_16) P6)) (or (or ?v_134 ?v_19) ?v_17)) (or (or ?v_91 P9) ?v_18)) (or (or ?v_42 ?v_48) ?v_70)) (or (or ?v_19 ?v_20) ?v_49)) (or (or P21 ?v_98) ?v_21)) (or (or ?v_57 P10) P49)) (or (or P18 ?v_22) ?v_112)) (or (or ?v_56 ?v_23) ?v_40)) (or (or ?v_24 ?v_195) P19)) (or (or ?v_39 ?v_139) ?v_205)) (or (or P17 ?v_15) ?v_106)) (or (or ?v_25 ?v_14) P46)) (or (or ?v_145 ?v_2) ?v_80)) (or (or ?v_170 ?v_29) ?v_26)) (or (or ?v_74 P7) P38)) (or (or ?v_83 ?v_8) P7)) (or (or ?v_27 ?v_132) ?v_28)) (or (or ?v_208 P48) ?v_12)) (or (or ?v_37 ?v_178) ?v_45)) (or (or ?v_62 ?v_86) ?v_136)) (or (or ?v_30 ?v_238) ?v_32)) (or (or ?v_232 ?v_33) ?v_34)) (or (or ?v_35 ?v_64) ?v_96)) (or (or ?v_88 ?v_37) ?v_77)) (or (or P24 ?v_58) ?v_15)) (or (or ?v_38 ?v_71) ?v_40)) (or (or ?v_50 ?v_133) ?v_59)) (or (or ?v_42 ?v_20) ?v_43)) (or (or ?v_118 P8) ?v_125)) (or (or ?v_92 P4) ?v_245)) (or (or ?v_87 ?v_17) ?v_146)) (or (or ?v_47 ?v_48) ?v_49)) (or (or ?v_25 ?v_194) ?v_151)) (or (or ?v_50 ?v_103) ?v_51)) (or (or ?v_161 P9) ?v_52)) (or (or ?v_89 ?v_53) ?v_226)) (or (or ?v_12 ?v_54) ?v_55)) (or (or ?v_152 P24) ?v_57)) (or (or ?v_58 ?v_185) ?v_60)) (or (or ?v_61 ?v_2) ?v_65)) (or (or ?v_62 ?v_113) ?v_66)) (or (or ?v_63 ?v_64) ?v_61)) (or (or ?v_65 ?v_81) ?v_47)) (or (or P45 ?v_26) P23)) (or (or ?v_85 ?v_192) P9)) (or (or ?v_93 ?v_114) ?v_55)) (or (or ?v_108 ?v_6) ?v_68)) (or (or ?v_69 ?v_70) ?v_71)) (or (or ?v_72 ?v_73) ?v_57)) (or (or ?v_62 ?v_47) ?v_9)) (or (or ?v_79 ?v_28) ?v_36)) (or (or P12 ?v_75) ?v_60)) (or (or ?v_110 ?v_76) ?v_77)) (or (or ?v_177 P40) ?v_37)) (or (or ?v_155 ?v_105) ?v_122)) (or (or ?v_79 ?v_80) ?v_55)) (or (or ?v_81 ?v_82) ?v_83)) (or (or P17 ?v_70) ?v_90)) (or (or ?v_111 ?v_85) ?v_219)) (or (or ?v_117 ?v_77) ?v_88)) (or (or P18 ?v_95) ?v_89)) (or (or ?v_53 ?v_6) ?v_90)) (or (or ?v_73 ?v_83) ?v_91)) (or (or ?v_0 ?v_92) ?v_123)) (or (or ?v_66 ?v_46) ?v_93)) (or (or ?v_94 ?v_95) P32)) (or (or ?v_187 ?v_55) ?v_96)) (or (or P13 ?v_141) ?v_189)) (or (or ?v_97 ?v_107) ?v_199)) (or (or ?v_98 ?v_159) ?v_247)) (or (or ?v_209 ?v_100) ?v_15)) (or (or ?v_143 ?v_224) ?v_102)) (or (or ?v_92 ?v_103) P32)) (or (or ?v_104 ?v_105) ?v_29)) (or (or P45 ?v_106) ?v_191)) (or (or ?v_10 ?v_100) ?v_107)) (or (or ?v_24 ?v_156) ?v_109)) (or (or ?v_23 ?v_99) ?v_110)) (or (or ?v_252 ?v_54) P11)) (or (or ?v_93 ?v_111) ?v_158)) (or (or ?v_112 ?v_150) ?v_96)) (or (or ?v_130 ?v_96) ?v_57)) (or (or ?v_91 ?v_114) ?v_115)) (or (or ?v_116 ?v_89) ?v_165)) (or (or ?v_58 ?v_8) ?v_31)) (or (or ?v_47 ?v_3) ?v_117)) (or (or ?v_118 ?v_11) ?v_153)) (or (or ?v_120 ?v_121) ?v_122)) (or (or ?v_2 ?v_9) P9)) (or (or ?v_23 ?v_6) P37)) (or (or P41 ?v_85) ?v_46)) (or (or ?v_123 ?v_33) P17)) (or (or ?v_175 ?v_49) ?v_124)) (or (or ?v_58 ?v_37) ?v_4)) (or (or ?v_125 ?v_235) ?v_231)) (or (or ?v_88 ?v_128) ?v_34)) (or (or ?v_157 P21) ?v_66)) (or (or ?v_163 ?v_167) ?v_118)) (or (or ?v_109 ?v_129) P24)) (or (or ?v_54 ?v_130) ?v_122)) (or (or ?v_113 ?v_108) ?v_137)) (or (or ?v_174 ?v_132) ?v_55)) (or (or ?v_184 ?v_100) ?v_135)) (or (or ?v_79 ?v_134) ?v_76)) (or (or ?v_46 ?v_57) ?v_120)) (or (or ?v_133 ?v_17) ?v_196)) (or (or ?v_8 ?v_92) ?v_116)) (or (or ?v_111 ?v_65) ?v_135)) (or (or P23 ?v_136) ?v_111)) (or (or ?v_6 P3) ?v_130)) (or (or ?v_137 ?v_138) ?v_139)) (or (or ?v_166 P17) ?v_140)) (or (or ?v_141 ?v_142) ?v_143)) (or (or ?v_144 P33) ?v_145)) (or (or ?v_146 P9) ?v_147)) (or (or P49 ?v_138) P47)) (or (or ?v_27 ?v_148) ?v_72)) (or (or ?v_53 P3) ?v_149)) (or (or ?v_150 P16) ?v_181)) (or (or P15 ?v_72) ?v_183)) (or (or ?v_16 ?v_89) ?v_5)) (or (or P21 ?v_2) ?v_132)) (or (or P45 ?v_172) ?v_29)) (or (or ?v_6 P26) ?v_173)) (or (or ?v_111 P47) P17)) (or (or ?v_75 ?v_151) ?v_143)) (or (or P28 ?v_147) ?v_152)) (or (or P0 ?v_99) ?v_153)) (or (or ?v_154 ?v_95) ?v_155)) (or (or P17 ?v_57) ?v_142)) (or (or ?v_156 ?v_160) P32)) (or (or ?v_203 ?v_122) ?v_4)) (or (or P45 ?v_10) P43)) (or (or ?v_215 ?v_39) ?v_21)) (or (or ?v_158 ?v_45) ?v_117)) (or (or ?v_102 P16) ?v_198)) (or (or ?v_159 ?v_160) ?v_0)) (or (or ?v_176 P32) ?v_128)) (or (or ?v_46 ?v_132) ?v_15)) (or (or ?v_25 ?v_109) ?v_117)) (or (or ?v_162 ?v_12) ?v_200)) (or (or ?v_163 ?v_91) ?v_164)) (or (or ?v_165 ?v_118) ?v_202)) (or (or ?v_166 ?v_145) ?v_236)) (or (or P49 ?v_62) P44)) (or (or ?v_77 ?v_114) ?v_162)) (or (or P38 ?v_167) ?v_133)) (or (or ?v_168 ?v_58) ?v_132)) (or (or P14 ?v_169) ?v_248)) (or (or ?v_42 ?v_143) P33)) (or (or ?v_170 ?v_92) ?v_157)) (or (or ?v_1 ?v_171) ?v_172)) (or (or ?v_132 ?v_152) ?v_230)) (or (or ?v_157 ?v_135) ?v_121)) (or (or ?v_70 ?v_132) ?v_43)) (or (or ?v_107 ?v_29) ?v_43)) (or (or ?v_174 ?v_186) ?v_5)) (or (or ?v_105 ?v_175) ?v_176)) (or (or ?v_86 ?v_177) ?v_244)) (or (or ?v_29 ?v_116) ?v_3)) (or (or P6 ?v_14) ?v_178)) (or (or ?v_179 ?v_156) ?v_134)) (or (or ?v_180 P13) ?v_42)) (or (or ?v_95 ?v_181) ?v_206)) (or (or ?v_83 ?v_151) ?v_25)) (or (or ?v_95 ?v_182) ?v_86)) (or (or ?v_134 ?v_133) P48)) (or (or ?v_163 ?v_134) ?v_65)) (or (or P44 ?v_35) ?v_183)) (or (or ?v_62 ?v_175) P30)) (or (or ?v_184 P43) ?v_39)) (or (or ?v_73 ?v_28) ?v_174)) (or (or ?v_137 ?v_92) ?v_64)) (or (or P24 ?v_4) ?v_156)) (or (or ?v_154 ?v_128) ?v_168)) (or (or ?v_185 ?v_51) P8)) (or (or ?v_193 ?v_186) ?v_187)) (or (or ?v_11 ?v_212) ?v_166)) (or (or ?v_141 ?v_183) ?v_16)) (or (or ?v_89 ?v_186) ?v_85)) (or (or ?v_169 ?v_48) ?v_44)) (or (or ?v_73 ?v_165) ?v_14)) (or (or ?v_46 ?v_102) ?v_188)) (or (or ?v_143 ?v_178) ?v_189)) (or (or ?v_16 ?v_31) P13)) (or (or ?v_5 ?v_111) P11)) (or (or P16 ?v_190) P9)) (or (or ?v_98 ?v_124) P20)) (or (or ?v_191 ?v_181) ?v_74)) (or (or ?v_56 ?v_74) P32)) (or (or ?v_192 ?v_172) ?v_94)) (or (or ?v_197 P41) P24)) (or (or ?v_194 P14) P42)) (or (or ?v_29 ?v_195) ?v_228)) (or (or ?v_71 ?v_168) ?v_87)) (or (or ?v_196 ?v_26) ?v_233)) (or (or P35 ?v_36) P29)) (or (or ?v_46 ?v_121) ?v_97)) (or (or ?v_197 ?v_122) ?v_142)) (or (or ?v_147 ?v_34) ?v_198)) (or (or ?v_199 ?v_198) ?v_200)) (or (or P41 ?v_26) ?v_89)) (or (or ?v_9 ?v_10) ?v_227)) (or (or ?v_201 ?v_129) ?v_202)) (or (or ?v_199 ?v_17) ?v_64)) (or (or ?v_42 ?v_173) P9)) (or (or ?v_88 ?v_60) ?v_70)) (or (or ?v_36 ?v_87) P2)) (or (or ?v_18 ?v_203) ?v_159)) (or (or ?v_20 ?v_204) ?v_30)) (or (or ?v_158 ?v_92) ?v_111)) (or (or ?v_144 ?v_204) P7)) (or (or P29 P29) ?v_80)) (or (or ?v_135 ?v_205) ?v_52)) (or (or ?v_242 ?v_89) P28)) (or (or ?v_202 ?v_83) P13)) (or (or ?v_100 ?v_17) ?v_146)) (or (or P25 ?v_81) ?v_129)) (or (or ?v_141 ?v_10) P28)) (or (or ?v_65 ?v_111) P34)) (or (or ?v_53 ?v_66) ?v_206)) (or (or ?v_111 ?v_165) ?v_18)) (or (or P20 ?v_15) ?v_207)) (or (or ?v_56 ?v_106) ?v_2)) (or (or ?v_167 ?v_19) ?v_108)) (or (or ?v_3 ?v_6) ?v_65)) (or (or ?v_14 ?v_26) ?v_254)) (or (or ?v_44 ?v_195) ?v_29)) (or (or ?v_26 ?v_135) ?v_20)) (or (or ?v_165 ?v_182) P27)) (or (or ?v_153 ?v_218) ?v_177)) (or (or ?v_139 ?v_163) ?v_128)) (or (or P9 ?v_175) P48)) (or (or ?v_243 ?v_122) ?v_61)) (or (or ?v_139 P41) ?v_173)) (or (or ?v_111 ?v_60) ?v_42)) (or (or ?v_63 ?v_145) P32)) (or (or ?v_25 P38) ?v_139)) (or (or ?v_154 ?v_122) ?v_208)) (or (or ?v_172 ?v_222) ?v_4)) (or (or ?v_10 ?v_65) ?v_139)) (or (or ?v_108 ?v_148) ?v_28)) (or (or ?v_209 ?v_210) ?v_63)) (or (or ?v_164 P42) ?v_136)) (or (or ?v_211 ?v_43) ?v_212)) (or (or ?v_213 P10) ?v_68)) (or (or P42 ?v_115) ?v_214)) (or (or ?v_215 ?v_1) ?v_162)) (or (or P19 ?v_106) ?v_155)) (or (or ?v_30 ?v_172) P10)) (or (or P48 P5) ?v_197)) (or (or ?v_216 ?v_75) ?v_147)) (or (or ?v_62 P46) ?v_48)) (or (or ?v_108 P28) ?v_64)) (or (or P39 ?v_75) ?v_9)) (or (or ?v_87 ?v_60) ?v_23)) (or (or ?v_60 ?v_253) ?v_217)) (or (or ?v_214 ?v_49) ?v_60)) (or (or ?v_138 ?v_135) ?v_217)) (or (or ?v_142 ?v_118) ?v_116)) (or (or ?v_26 P28) ?v_124)) (or (or ?v_208 ?v_158) P18)) (or (or P26 ?v_141) ?v_28)) (or (or ?v_39 ?v_174) ?v_218)) (or (or ?v_201 ?v_225) ?v_219)) (or (or ?v_24 ?v_192) ?v_117)) (or (or P18 ?v_17) ?v_174)) (or (or ?v_86 ?v_182) ?v_220)) (or ?v_221 ?v_135)) (or (or ?v_214 ?v_149) ?v_167)) (or (or ?v_222 ?v_107) ?v_20)) (or (or ?v_223 ?v_140) P18)) (or (or ?v_75 ?v_89) ?v_16)) (or (or ?v_189 ?v_16) ?v_110)) (or (or ?v_2 ?v_176) ?v_224)) (or (or P21 ?v_103) ?v_28)) (or (or P13 ?v_77) ?v_1)) (or (or ?v_132 ?v_60) ?v_225)) (or (or ?v_226 P47) ?v_180)) (or (or ?v_250 P26) ?v_121)) (or (or ?v_14 ?v_118) ?v_3)) (or (or ?v_19 ?v_75) ?v_227)) (or (or ?v_228 ?v_115) ?v_208)) (or (or ?v_195 ?v_107) ?v_120)) (or (or P31 ?v_129) ?v_133)) (or (or ?v_229 P1) ?v_102)) (or (or ?v_230 ?v_149) ?v_10)) (or (or ?v_91 P14) ?v_208)) (or (or ?v_42 ?v_99) ?v_20)) (or (or ?v_87 ?v_19) ?v_31)) (or (or ?v_184 ?v_0) ?v_65)) (or (or ?v_81 ?v_141) P32)) (or (or ?v_77 ?v_231) ?v_191)) (or (or ?v_222 ?v_34) ?v_185)) (or (or ?v_239 ?v_103) ?v_133)) (or (or P42 ?v_160) ?v_29)) (or (or ?v_93 ?v_215) ?v_123)) (or (or ?v_138 ?v_204) ?v_66)) (or (or ?v_2 P47) ?v_128)) (or (or ?v_107 P35) ?v_123)) (or (or ?v_162 P23) ?v_209)) (or (or ?v_197 ?v_139) ?v_232)) (or (or ?v_117 ?v_102) ?v_116)) (or (or ?v_233 ?v_107) ?v_234)) (or ?v_246 ?v_107)) (or (or P40 ?v_76) P26)) (or (or ?v_96 ?v_40) ?v_22)) (or (or ?v_157 ?v_172) ?v_31)) (or (or P37 ?v_48) ?v_167)) (or (or ?v_164 ?v_137) ?v_139)) (or (or P32 P24) ?v_190)) (or (or ?v_145 ?v_155) ?v_235)) (or (or ?v_137 ?v_134) ?v_226)) (or (or ?v_134 P14) ?v_133)) (or (or ?v_86 P20) P40)) (or (or ?v_183 ?v_90) ?v_227)) (or (or ?v_152 P21) P37)) (or (or ?v_193 ?v_153) ?v_133)) (or (or ?v_183 ?v_92) ?v_49)) (or (or ?v_54 P39) ?v_17)) (or (or ?v_214 ?v_217) P9)) (or (or ?v_224 ?v_223) ?v_185)) (or (or ?v_236 ?v_12) ?v_229)) (or (or ?v_59 ?v_93) ?v_91)) (or (or ?v_125 P7) ?v_21)) (or (or ?v_61 ?v_121) ?v_0)) (or (or ?v_100 ?v_231) ?v_194)) (or (or ?v_173 ?v_192) ?v_16)) (or (or ?v_71 ?v_108) ?v_173)) (or (or ?v_81 ?v_205) ?v_157)) (or (or P23 ?v_137) ?v_58)) (or (or ?v_148 ?v_149) ?v_37)) (or (or ?v_44 ?v_35) ?v_237)) (or (or ?v_226 ?v_238) ?v_236)) (or (or ?v_214 P24) ?v_157)) (or (or P3 ?v_239) ?v_200)) (or (or ?v_157 ?v_28) ?v_225)) (or (or ?v_192 ?v_240) ?v_184)) (or (or ?v_198 ?v_214) ?v_235)) (or (or ?v_99 ?v_88) ?v_32)) (or (or ?v_226 ?v_3) ?v_215)) (or (or ?v_240 P44) ?v_170)) (or (or ?v_208 ?v_29) ?v_97)) (or (or ?v_197 ?v_149) ?v_129)) (or (or ?v_97 ?v_185) ?v_227)) (or (or ?v_174 ?v_109) ?v_194)) (or (or P33 ?v_230) ?v_91)) (or (or ?v_196 ?v_216) ?v_4)) (or (or P10 P10) ?v_75)) (or (or ?v_241 P11) ?v_136)) (or (or ?v_106 ?v_240) ?v_145)) (or (or ?v_92 ?v_118) P27)) (or (or ?v_130 ?v_72) ?v_242)) (or (or ?v_224 ?v_29) ?v_71)) (or (or ?v_89 ?v_198) ?v_90)) (or (or P38 P18) ?v_187)) (or (or ?v_190 ?v_151) ?v_174)) (or (or ?v_44 ?v_111) ?v_129)) (or (or ?v_37 P41) ?v_185)) (or (or ?v_181 P21) ?v_216)) (or (or P1 ?v_104) ?v_218)) (or (or ?v_105 ?v_134) ?v_227)) (or (or P43 ?v_217) ?v_110)) (or (or ?v_205 ?v_130) ?v_233)) (or (or P23 ?v_218) ?v_53)) (or (or ?v_87 ?v_129) ?v_33)) (or (or P8 ?v_86) ?v_197)) (or (or ?v_90 P9) ?v_109)) (or (or ?v_15 ?v_15) ?v_114)) (or (or P3 P12) ?v_53)) (or (or ?v_72 ?v_75) P15)) (or (or P32 ?v_48) ?v_97)) (or (or P19 ?v_10) ?v_222)) (or (or ?v_210 ?v_238) P39)) (or (or ?v_29 P27) ?v_132)) (or (or ?v_100 P47) ?v_218)) (or (or ?v_85 ?v_243) P39)) (or (or ?v_190 P2) ?v_143)) (or (or ?v_150 ?v_65) ?v_173)) (or (or ?v_176 ?v_244) ?v_211)) (or (or ?v_168 ?v_49) P23)) (or (or ?v_184 P7) P22)) (or (or ?v_202 ?v_159) ?v_220)) (or (or ?v_93 ?v_143) ?v_196)) (or (or ?v_182 ?v_204) ?v_6)) (or (or P9 ?v_68) ?v_97)) (or (or ?v_17 ?v_134) P2)) (or (or ?v_29 ?v_233) ?v_36)) (or (or ?v_171 ?v_243) ?v_117)) (or (or ?v_22 ?v_42) ?v_44)) (or (or ?v_169 P43) ?v_135)) (or (or ?v_240 ?v_21) ?v_64)) (or (or ?v_251 ?v_208) ?v_127)) (or (or ?v_50 ?v_115) ?v_39)) (or (or ?v_58 ?v_59) ?v_142)) (or (or P22 ?v_11) ?v_222)) (or (or ?v_122 ?v_80) ?v_98)) (or (or P14 ?v_245) ?v_26)) (or (or ?v_151 ?v_227) ?v_70)) (or ?v_246 ?v_239)) (or (or ?v_71 ?v_60) ?v_247)) (or (or ?v_123 ?v_137) ?v_217)) (or (or ?v_29 ?v_25) P34)) (or (or ?v_157 ?v_64) ?v_114)) (or (or ?v_227 ?v_161) ?v_22)) (or (or ?v_16 ?v_28) ?v_224)) (or (or ?v_200 ?v_88) ?v_142)) (or (or P15 P10) ?v_216)) (or (or ?v_73 ?v_244) ?v_198)) (or (or P37 ?v_220) ?v_137)) (or (or P11 ?v_146) P32)) (or (or ?v_19 ?v_31) ?v_229)) (or (or ?v_2 ?v_54) ?v_163)) (or (or ?v_211 ?v_245) ?v_156)) (or (or ?v_201 P5) ?v_153)) (or (or P24 ?v_113) ?v_240)) (or (or ?v_127 ?v_115) ?v_217)) (or (or ?v_4 ?v_121) ?v_187)) (or (or ?v_130 P49) ?v_128)) (or (or ?v_1 P6) ?v_175)) (or (or ?v_181 ?v_22) ?v_220)) (or (or P1 P20) ?v_255)) (or (or ?v_245 ?v_148) ?v_155)) (or (or P46 ?v_30) ?v_38)) (or (or ?v_187 ?v_147) P2)) (or (or ?v_215 ?v_44) ?v_233)) (or (or ?v_79 P49) ?v_151)) (or (or ?v_207 ?v_99) ?v_248)) (or (or P40 P40) ?v_225)) (or (or ?v_109 P39) ?v_188)) (or (or ?v_211 P9) ?v_208)) (or (or ?v_123 ?v_140) ?v_208)) (or (or ?v_111 P21) ?v_172)) (or (or ?v_73 ?v_17) ?v_182)) (or (or ?v_198 ?v_204) ?v_196)) (or (or ?v_43 P12) P4)) (or (or ?v_127 ?v_25) ?v_60)) (or (or ?v_37 ?v_39) ?v_83)) (or (or P25 ?v_230) P43)) (or (or ?v_256 ?v_61) ?v_186)) (or (or ?v_150 ?v_81) ?v_116)) (or (or P15 ?v_239) ?v_204)) (or (or ?v_70 ?v_79) ?v_58)) (or (or P28 P38) P24)) (or (or P27 ?v_79) ?v_145)) (or (or ?v_239 ?v_99) ?v_125)) (or (or ?v_114 ?v_18) ?v_156)) (or (or ?v_193 ?v_249) ?v_64)) (or (or ?v_114 ?v_201) P40)) (or (or ?v_180 ?v_112) ?v_76)) (or (or ?v_36 ?v_114) ?v_156)) (or (or ?v_48 ?v_250) (not P40))) (or (or P1 ?v_70) ?v_130)) (or (or ?v_124 ?v_116) ?v_149)) (or (or ?v_150 ?v_231) ?v_43)) (or (or ?v_249 ?v_35) ?v_226)) (or (or ?v_165 ?v_225) ?v_134)) (or (or ?v_158 P9) ?v_183)) (or (or ?v_40 ?v_68) ?v_197)) (or (or ?v_172 ?v_51) ?v_146)) (or (or ?v_57 ?v_46) ?v_114)) (or (or P26 P14) ?v_138)) (or (or ?v_203 ?v_229) P4)) (or (or ?v_247 ?v_146) ?v_251)) (or (or ?v_54 ?v_128) ?v_65)) (or (or P9 P13) ?v_91)) (or (or ?v_192 P41) ?v_77)) (or (or ?v_32 ?v_190) ?v_27)) (or (or ?v_245 ?v_195) ?v_197)) (or (or ?v_127 ?v_230) ?v_2)) (or (or ?v_171 ?v_107) P48)) (or (or ?v_61 ?v_162) ?v_85)) (or (or ?v_79 ?v_185) P31)) (or (or ?v_85 P34) ?v_195)) (or (or ?v_207 ?v_204) ?v_231)) (or (or ?v_146 P26) P4)) (or (or P43 ?v_8) P3)) (or (or ?v_66 ?v_214) ?v_29)) (or (or ?v_19 ?v_92) ?v_57)) (or (or ?v_190 P44) ?v_45)) (or (or ?v_99 ?v_99) ?v_214)) (or (or P42 ?v_163) ?v_142)) (or (or ?v_226 P36) ?v_178)) (or (or ?v_14 ?v_6) ?v_188)) (or (or ?v_124 ?v_205) ?v_235)) (or (or ?v_132 P19) ?v_49)) (or (or ?v_16 P26) ?v_109)) (or (or ?v_95 ?v_226) ?v_146)) (or (or ?v_31 ?v_38) ?v_122)) (or (or ?v_26 ?v_182) ?v_129)) (or (or ?v_159 ?v_159) ?v_144)) (or (or ?v_115 ?v_92) ?v_50)) (or (or ?v_95 ?v_151) ?v_185)) (or (or ?v_233 ?v_174) ?v_120)) (or (or P17 ?v_245) ?v_9)) (or (or P29 ?v_65) ?v_137)) (or (or ?v_219 ?v_73) ?v_28)) (or (or P16 P3) ?v_148)) (or (or ?v_62 ?v_165) ?v_15)) (or (or ?v_227 ?v_64) ?v_76)) (or (or P29 ?v_170) ?v_194)) (or (or ?v_165 ?v_252) ?v_248)) (or (or ?v_120 P13) ?v_143)) (or (or ?v_165 ?v_77) ?v_70)) (or (or ?v_55 ?v_81) ?v_8)) (or (or P33 ?v_123) ?v_104)) (or (or ?v_218 ?v_142) ?v_106)) (or (or P28 ?v_191) ?v_248)) (or (or ?v_15 ?v_97) ?v_141)) (or (or ?v_59 ?v_34) ?v_208)) (or (or ?v_16 ?v_9) ?v_166)) (or (or ?v_207 P7) ?v_196)) (or (or ?v_233 ?v_72) P48)) (or (or ?v_141 ?v_116) P40)) (or (or P31 P19) P35)) (or (or ?v_62 ?v_184) ?v_147)) (or (or ?v_116 ?v_33) ?v_153)) (or (or ?v_141 ?v_72) ?v_45)) (or (or ?v_128 ?v_200) ?v_97)) (or (or P41 P31) ?v_12)) (or (or ?v_56 ?v_143) ?v_191)) (or (or ?v_72 ?v_207) ?v_212)) (or (or ?v_158 (not ?v_181)) P39)) (or (or P7 ?v_35) ?v_70)) (or (or ?v_32 P25) ?v_5)) (or (or ?v_181 ?v_200) ?v_9)) (or (or ?v_48 ?v_231) ?v_23)) (or (or ?v_81 ?v_158) ?v_240)) (or (or ?v_186 ?v_176) ?v_133)) (or (or ?v_68 ?v_21) ?v_127)) (or (or ?v_150 P20) ?v_140)) (or (or ?v_245 ?v_30) ?v_248)) (or (or ?v_185 P33) ?v_235)) (or (or ?v_197 ?v_35) ?v_52)) (or (or ?v_236 ?v_121) ?v_220)) (or (or ?v_111 ?v_76) ?v_96)) (or (or ?v_169 ?v_145) ?v_253)) (or (or ?v_6 ?v_224) P38)) (or (or ?v_208 ?v_235) ?v_172)) (or (or ?v_148 P21) ?v_228)) (or (or ?v_77 ?v_76) P25)) (or (or ?v_21 P33) P44)) (or (or P17 ?v_52) ?v_58)) (or (or ?v_46 ?v_71) P20)) (or (or ?v_236 ?v_36) ?v_177)) (or (or ?v_39 ?v_232) ?v_248)) (or (or ?v_164 ?v_108) ?v_180)) (or (or P5 ?v_178) ?v_89)) (or (or P24 ?v_37) P35)) (or (or ?v_105 ?v_191) ?v_62)) (or (or ?v_140 ?v_109) ?v_115)) (or (or ?v_154 ?v_236) P5)) (or (or ?v_222 ?v_254) ?v_165)) (or (or ?v_22 ?v_148) ?v_4)) (or (or ?v_167 ?v_17) ?v_110)) (or (or ?v_53 ?v_235) ?v_162)) (or (or (not ?v_141) ?v_85) ?v_159)) (or (or ?v_179 ?v_60) ?v_207)) (or (or P34 ?v_87) ?v_147)) (or (or ?v_161 ?v_3) ?v_42)) (or (or ?v_230 ?v_161) ?v_166)) (or (or P48 P30) ?v_192)) (or (or ?v_198 ?v_247) ?v_96)) (or (or ?v_231 ?v_63) ?v_151)) (or (or ?v_144 ?v_117) ?v_249)) (or (or ?v_220 ?v_97) ?v_18)) (or (or ?v_82 ?v_51) ?v_22)) (or (or ?v_110 ?v_229) ?v_106)) (or (or ?v_83 ?v_231) ?v_27)) (or (or ?v_54 ?v_253) P2)) (or (or ?v_167 ?v_175) P14)) (or (or ?v_93 ?v_177) ?v_255)) (or (or ?v_135 ?v_146) ?v_50)) (or (or ?v_256 ?v_220) ?v_114)))))))))))))))))))))))))))))))))))
(check-sat)
(exit)
